-19554.0 -19540.0 
-19554.0 -19540.0 
-18962.0 -19870.0 
-19174.0 -19852.0 
-19237.0 -19839.0 
-19508.0 -19581.0 
-19343.0 -19779.0 
-19387.0 -19750.0 
-19537.0 -19545.0 
-19297.0 -19780.0 
-19262.0 -19802.0 
-19443.0 -19670.0 
-19407.0 -19708.0 
-19399.0 -19719.0 
-19455.0 -19639.0 
-19487.0 -19604.0 
-19420.0 -19692.0 
-19420.0 -19692.0 
-19443.0 -19670.0 
-19190.0 -19851.0 
-19174.0 -19852.0 
-19395.0 -19739.0 
-19455.0 -19639.0 
-19468.0 -19611.0 
-19190.0 -19851.0 
-19461.0 -19623.0 
-19487.0 -19604.0 
-19282.0 -19794.0 
-19278.0 -19801.0 
-19282.0 -19794.0 
-19461.0 -19623.0 
-19262.0 -19802.0 
-19395.0 -19739.0 
-19468.0 -19611.0 
-19278.0 -19801.0 
-19468.0 -19611.0 
-19468.0 -19611.0 
-19468.0 -19611.0 
-19468.0 -19611.0 
-19468.0 -19611.0 
-19468.0 -19611.0 
-19468.0 -19611.0 
-19468.0 -19611.0 
-19468.0 -19611.0 
-19468.0 -19611.0 
-19468.0 -19611.0 
-19468.0 -19611.0 
-19468.0 -19611.0 
-19468.0 -19611.0 
-19468.0 -19611.0 
-19468.0 -19611.0 
-19468.0 -19611.0 
-19468.0 -19611.0 
-19468.0 -19611.0 
-19468.0 -19611.0 
-19468.0 -19611.0 
-19468.0 -19611.0 
-19468.0 -19611.0 
-19468.0 -19611.0 
-19468.0 -19611.0 
-19468.0 -19611.0 
-19468.0 -19611.0 
-19468.0 -19611.0 
-19468.0 -19611.0 
-19468.0 -19611.0 
-19468.0 -19611.0 
-19468.0 -19611.0 
-19468.0 -19611.0 
-19468.0 -19611.0 
-19468.0 -19611.0 
-19468.0 -19611.0 
-19468.0 -19611.0 
-19468.0 -19611.0 
-19468.0 -19611.0 
-19468.0 -19611.0 
-19468.0 -19611.0 
-19468.0 -19611.0 
-19468.0 -19611.0 
-19468.0 -19611.0 
-19468.0 -19611.0 
-19468.0 -19611.0 
-19468.0 -19611.0 
-19468.0 -19611.0 
-19468.0 -19611.0 
-19468.0 -19611.0 
-19468.0 -19611.0 
-19468.0 -19611.0 
-19468.0 -19611.0 
-19468.0 -19611.0 
-19468.0 -19611.0 
-19468.0 -19611.0 
-19468.0 -19611.0 
-19468.0 -19611.0 
-19468.0 -19611.0 
-19468.0 -19611.0 
-19468.0 -19611.0 
-19468.0 -19611.0 
-19468.0 -19611.0 
-19468.0 -19611.0 
-19468.0 -19611.0 
